DIMACS2
80 2 267 254 209 29 79 18 150 131 172 80 153 94 212 188 284 279 201 121 39 16 0 246 273 125 169 239 82 175 317 186 184 27 68 88 143 251 116 23 180 115 228 138 195 21 281 213 31 26 72 161 70 34 20 258 204 257 299 128 245 50 237 8 207 170 51 176 288 55 286 198 137 46 43 189 12 57 233 139 99
p edge 320 684
e 0 224 22.0
e 0 3 40.0
e 1 287 1.0
e 1 315 1.0
e 2 148 12.0
e 2 55 26.0
e 2 94 17.0
e 3 286 6.0
e 3 98 1.0
e 4 229 2.0
e 4 133 1.0
e 5 147 1.0
e 5 3 1.0
e 6 285 2.0
e 6 99 7.0
e 7 63 1.0
e 7 54 1.0
e 8 156 11.0
e 8 179 49.0
e 9 48 2.0
e 9 217 1.0
e 10 303 1.0
e 10 141 1.0
e 11 304 2.0
e 11 214 2.0
e 12 81 4.0
e 12 154 49.0
e 12 201 27.0
e 13 280 1.0
e 13 172 38.0
e 14 196 1.0
e 14 237 40.0
e 15 259 1.0
e 15 266 1.0
e 16 4 21.0
e 16 83 19.0
e 17 55 14.0
e 17 291 1.0
e 18 141 31.0
e 18 248 26.0
e 19 307 1.0
e 19 15 1.0
e 20 56 11.0
e 20 138 32.0
e 20 21 13.0
e 21 247 25.0
e 21 228 18.0
e 21 121 49.0
e 22 101 1.0
e 22 260 2.0
e 23 115 6.0
e 23 1 30.0
e 24 272 1.0
e 24 280 1.0
e 25 104 1.0
e 25 276 1.0
e 26 57 45.0
e 26 307 24.0
e 27 42 22.0
e 27 138 29.0
e 27 116 42.0
e 28 70 46.0
e 28 84 2.0
e 29 127 46.0
e 29 297 8.0
e 29 233 37.0
e 29 246 19.0
e 30 84 1.0
e 30 45 1.0
e 31 23 22.0
e 31 100 12.0
e 31 34 39.0
e 32 64 1.0
e 32 300 2.0
e 33 149 1.0
e 33 32 1.0
e 34 151 30.0
e 34 255 12.0
e 34 299 49.0
e 35 157 1.0
e 35 14 1.0
e 36 278 1.0
e 36 166 1.0
e 37 266 1.0
e 37 45 1.0
e 38 139 27.0
e 38 210 1.0
e 39 102 49.0
e 39 12 37.0
e 39 317 16.0
e 40 145 2.0
e 40 103 1.0
e 41 300 1.0
e 41 206 1.0
e 42 188 36.0
e 42 125 18.0
e 43 287 6.0
e 43 79 2.0
e 44 14 1.0
e 44 22 2.0
e 45 280 1.0
e 45 215 2.0
e 46 115 6.0
e 46 246 41.0
e 46 258 44.0
e 46 50 30.0
e 47 56 1.0
e 47 231 1.0
e 48 69 2.0
e 48 103 2.0
e 49 281 3.0
e 49 33 1.0
e 50 249 18.0
e 50 153 43.0
e 50 82 48.0
e 51 171 25.0
e 51 73 15.0
e 51 68 48.0
e 51 195 12.0
e 52 117 1.0
e 52 240 1.0
e 53 86 1.0
e 53 166 1.0
e 54 29 23.0
e 54 317 21.0
e 55 245 27.0
e 55 56 10.0
e 56 214 1.0
e 56 192 1.0
e 57 289 22.0
e 57 252 36.0
e 58 252 2.0
e 58 26 38.0
e 59 37 1.0
e 59 88 5.0
e 60 236 1.0
e 60 98 1.0
e 61 291 1.0
e 61 232 1.0
e 62 136 1.0
e 62 313 2.0
e 63 18 35.0
e 63 147 3.0
e 64 227 1.0
e 64 291 1.0
e 65 159 1.0
e 65 99 12.0
e 66 137 28.0
e 66 271 2.0
e 67 36 1.0
e 67 159 1.0
e 68 277 24.0
e 68 261 15.0
e 68 143 43.0
e 69 41 1.0
e 69 83 1.0
e 70 104 20.0
e 70 77 31.0
e 70 169 33.0
e 70 237 1.0
e 71 72 49.0
e 71 164 1.0
e 72 136 35.0
e 72 53 25.0
e 73 120 2.0
e 73 114 2.0
e 74 89 1.0
e 74 156 1.0
e 75 120 1.0
e 75 314 1.0
e 76 274 3.0
e 76 250 2.0
e 77 85 1.0
e 77 57 2.0
e 78 276 1.0
e 78 203 1.0
e 79 18 4.0
e 79 287 48.0
e 80 221 42.0
e 80 214 39.0
e 81 288 22.0
e 81 10 1.0
e 82 3 9.0
e 82 164 45.0
e 82 88 9.0
e 82 169 16.0
e 83 91 1.0
e 83 230 1.0
e 84 256 2.0
e 84 315 2.0
e 85 18 30.0
e 85 153 29.0
e 86 171 1.0
e 86 131 14.0
e 87 307 1.0
e 87 243 1.0
e 88 11 38.0
e 88 52 23.0
e 88 94 1.0
e 89 116 4.0
e 89 195 13.0
e 90 167 1.0
e 90 178 2.0
e 91 298 1.0
e 91 159 1.0
e 92 63 1.0
e 92 122 1.0
e 93 39 38.0
e 93 48 1.0
e 94 106 14.0
e 94 18 17.0
e 95 0 3.0
e 95 212 49.0
e 96 213 6.0
e 96 106 1.0
e 97 1 1.0
e 97 282 1.0
e 98 285 1.0
e 98 298 2.0
e 99 123 37.0
e 99 97 22.0
e 100 124 1.0
e 100 226 2.0
e 101 252 2.0
e 101 265 1.0
e 102 306 1.0
e 102 78 2.0
e 103 313 1.0
e 103 305 1.0
e 104 232 2.0
e 104 108 2.0
e 105 260 1.0
e 105 59 1.0
e 106 161 6.0
e 106 287 1.0
e 107 97 2.0
e 107 39 1.0
e 108 99 29.0
e 108 282 1.0
e 109 86 1.0
e 109 269 1.0
e 110 38 1.0
e 110 102 1.0
e 111 228 22.0
e 111 232 1.0
e 112 235 1.0
e 112 54 2.0
e 113 49 1.0
e 113 224 1.0
e 114 157 1.0
e 114 243 1.0
e 115 262 36.0
e 115 100 41.0
e 116 182 2.0
e 116 112 26.0
e 116 121 46.0
e 117 138 47.0
e 117 41 1.0
e 118 2 48.0
e 118 220 2.0
e 119 63 1.0
e 119 187 1.0
e 120 147 1.0
e 120 26 6.0
e 121 198 38.0
e 121 7 29.0
e 121 169 41.0
e 122 45 1.0
e 122 65 1.0
e 123 139 30.0
e 123 79 13.0
e 124 110 1.0
e 124 93 2.0
e 125 10 42.0
e 125 220 8.0
e 125 128 7.0
e 125 131 5.0
e 126 170 43.0
e 126 62 1.0
e 127 274 2.0
e 127 269 2.0
e 128 48 21.0
e 128 84 3.0
e 129 271 2.0
e 129 239 20.0
e 130 117 1.0
e 130 5 3.0
e 131 0 8.0
e 131 163 6.0
e 131 137 17.0
e 132 288 39.0
e 132 113 1.0
e 133 52 1.0
e 133 296 1.0
e 134 269 1.0
e 134 280 1.0
e 135 31 2.0
e 135 216 2.0
e 136 110 2.0
e 136 32 1.0
e 137 26 24.0
e 137 165 12.0
e 137 175 39.0
e 138 283 43.0
e 138 267 25.0
e 139 254 32.0
e 139 65 6.0
e 140 31 49.0
e 140 230 1.0
e 141 126 2.0
e 141 206 1.0
e 142 59 1.0
e 142 251 32.0
e 143 76 43.0
e 143 182 35.0
e 143 198 27.0
e 144 264 1.0
e 144 186 39.0
e 145 28 1.0
e 145 46 7.0
e 146 117 2.0
e 146 310 1.0
e 147 261 1.0
e 147 285 1.0
e 148 57 41.0
e 148 273 48.0
e 149 207 5.0
e 149 178 1.0
e 150 58 36.0
e 150 124 22.0
e 150 161 12.0
e 150 170 48.0
e 150 172 34.0
e 151 148 1.0
e 151 305 1.0
e 152 117 2.0
e 152 288 15.0
e 153 109 14.0
e 153 247 13.0
e 154 72 22.0
e 154 312 1.0
e 155 33 2.0
e 155 143 7.0
e 156 217 1.0
e 156 230 2.0
e 157 196 1.0
e 157 297 1.0
e 158 124 1.0
e 158 123 1.0
e 159 245 24.0
e 159 288 16.0
e 160 5 1.0
e 160 147 1.0
e 161 312 27.0
e 161 282 4.0
e 162 317 13.0
e 162 83 2.0
e 163 296 1.0
e 163 180 44.0
e 164 204 1.0
e 164 305 1.0
e 165 173 2.0
e 165 141 1.0
e 166 225 3.0
e 166 8 41.0
e 167 109 1.0
e 167 200 1.0
e 168 35 1.0
e 168 78 2.0
e 169 80 44.0
e 169 144 46.0
e 170 313 2.0
e 170 83 7.0
e 171 83 1.0
e 171 224 2.0
e 172 20 39.0
e 172 164 25.0
e 173 109 1.0
e 173 79 48.0
e 174 123 2.0
e 174 253 2.0
e 175 173 26.0
e 175 254 30.0
e 175 279 39.0
e 175 176 23.0
e 176 281 8.0
e 176 309 36.0
e 176 180 39.0
e 176 184 41.0
e 177 11 2.0
e 177 35 1.0
e 178 22 1.0
e 178 197 2.0
e 179 93 2.0
e 179 15 1.0
e 180 311 25.0
e 180 291 37.0
e 180 184 43.0
e 181 241 2.0
e 181 77 1.0
e 182 201 22.0
e 182 183 1.0
e 183 124 1.0
e 183 298 1.0
e 184 115 36.0
e 184 13 34.0
e 185 272 1.0
e 185 210 1.0
e 186 54 40.0
e 186 210 20.0
e 187 83 1.0
e 187 33 1.0
e 188 197 25.0
e 188 1 14.0
e 188 233 48.0
e 188 189 28.0
e 189 275 29.0
e 189 128 7.0
e 190 15 1.0
e 190 154 2.0
e 191 77 1.0
e 191 225 1.0
e 192 86 1.0
e 192 318 1.0
e 193 303 1.0
e 193 93 1.0
e 194 308 1.0
e 194 172 22.0
e 195 257 23.0
e 195 190 3.0
e 196 269 1.0
e 196 83 1.0
e 197 24 2.0
e 197 179 2.0
e 198 77 15.0
e 198 21 5.0
e 198 207 1.0
e 199 243 2.0
e 199 91 1.0
e 200 253 1.0
e 200 184 21.0
e 201 8 36.0
e 201 249 49.0
e 202 228 36.0
e 202 262 1.0
e 203 222 1.0
e 203 194 2.0
e 204 152 16.0
e 204 115 16.0
e 205 278 1.0
e 205 38 1.0
e 206 27 3.0
e 206 68 34.0
e 207 205 22.0
e 208 235 1.0
e 208 286 36.0
e 209 56 35.0
e 209 318 33.0
e 209 212 9.0
e 209 213 48.0
e 210 55 47.0
e 210 93 1.0
e 211 166 2.0
e 211 100 1.0
e 212 278 7.0
e 212 51 1.0
e 212 237 46.0
e 213 200 10.0
e 213 158 13.0
e 214 95 1.0
e 214 209 38.0
e 215 238 1.0
e 215 171 1.0
e 216 45 1.0
e 216 57 22.0
e 217 213 30.0
e 217 128 44.0
e 218 0 45.0
e 218 228 33.0
e 219 47 1.0
e 219 43 1.0
e 220 80 45.0
e 220 20 30.0
e 221 16 19.0
e 221 86 1.0
e 222 215 1.0
e 222 273 41.0
e 223 57 19.0
e 223 76 2.0
e 224 9 1.0
e 224 262 2.0
e 225 303 1.0
e 225 179 2.0
e 226 23 44.0
e 226 32 2.0
e 227 203 1.0
e 227 76 1.0
e 228 72 44.0
e 228 16 37.0
e 229 201 47.0
e 229 38 1.0
e 230 220 1.0
e 230 115 25.0
e 231 91 2.0
e 231 159 2.0
e 232 44 2.0
e 232 282 1.0
e 233 132 43.0
e 233 43 37.0
e 234 316 1.0
e 234 5 1.0
e 235 295 1.0
e 235 182 1.0
e 236 80 40.0
e 236 156 1.0
e 237 161 4.0
e 237 286 11.0
e 238 113 2.0
e 238 94 11.0
e 239 270 40.0
e 239 9 30.0
e 239 246 34.0
e 239 251 7.0
e 240 73 1.0
e 240 202 1.0
e 241 233 3.0
e 241 114 2.0
e 242 22 2.0
e 242 229 2.0
e 243 41 1.0
e 243 193 1.0
e 244 294 1.0
e 244 61 1.0
e 245 211 16.0
e 245 139 13.0
e 246 195 29.0
e 246 142 20.0
e 247 61 1.0
e 247 282 1.0
e 248 307 1.0
e 248 72 20.0
e 249 288 15.0
e 249 271 2.0
e 250 267 17.0
e 250 40 1.0
e 251 98 32.0
e 251 273 24.0
e 251 258 49.0
e 252 7 2.0
e 252 313 2.0
e 253 203 2.0
e 253 8 20.0
e 254 80 5.0
e 254 295 14.0
e 255 174 2.0
e 255 16 46.0
e 256 218 1.0
e 256 64 1.0
e 257 54 17.0
e 257 103 31.0
e 258 178 14.0
e 258 171 44.0
e 258 279 49.0
e 259 120 2.0
e 259 230 1.0
e 260 127 1.0
e 260 263 1.0
e 261 185 1.0
e 261 189 14.0
e 262 236 1.0
e 262 299 31.0
e 263 95 1.0
e 263 287 1.0
e 264 242 2.0
e 264 89 1.0
e 265 286 16.0
e 265 266 1.0
e 266 208 1.0
e 266 313 1.0
e 267 204 22.0
e 268 23 6.0
e 268 254 44.0
e 269 289 2.0
e 269 311 5.0
e 270 85 1.0
e 270 267 3.0
e 271 49 1.0
e 271 204 3.0
e 272 168 1.0
e 272 73 1.0
e 273 240 27.0
e 273 2 42.0
e 274 92 1.0
e 274 107 3.0
e 275 267 7.0
e 275 99 21.0
e 276 59 1.0
e 276 285 1.0
e 277 199 1.0
e 277 191 1.0
e 278 153 14.0
e 278 157 1.0
e 279 90 40.0
e 279 174 33.0
e 280 112 1.0
e 280 295 1.0
e 281 96 18.0
e 281 9 10.0
e 281 284 18.0
e 282 186 8.0
e 282 36 1.0
e 283 60 1.0
e 283 207 17.0
e 284 92 46.0
e 284 263 28.0
e 285 13 1.0
e 285 118 2.0
e 286 205 45.0
e 286 310 29.0
e 287 86 2.0
e 288 231 9.0
e 288 42 22.0
e 289 112 1.0
e 289 205 1.0
e 290 280 1.0
e 290 210 1.0
e 291 27 47.0
e 291 282 1.0
e 292 50 17.0
e 292 241 2.0
e 293 43 34.0
e 293 90 3.0
e 294 207 6.0
e 294 240 1.0
e 295 24 1.0
e 295 288 2.0
e 296 218 1.0
e 296 105 1.0
e 297 93 1.0
e 297 167 2.0
e 298 189 30.0
e 298 272 2.0
e 299 257 22.0
e 299 144 11.0
e 300 293 1.0
e 300 34 21.0
e 301 18 43.0
e 301 24 3.0
e 302 197 1.0
e 302 100 1.0
e 303 276 1.0
e 303 224 2.0
e 304 164 1.0
e 304 253 1.0
e 305 111 1.0
e 305 122 1.0
e 306 144 1.0
e 306 136 2.0
e 307 279 12.0
e 307 270 1.0
e 308 12 6.0
e 308 52 1.0
e 309 135 1.0
e 309 59 2.0
e 310 99 4.0
e 310 217 1.0
e 311 264 1.0
e 311 36 2.0
e 312 200 1.0
e 312 257 35.0
e 313 40 1.0
e 313 181 1.0
e 314 37 2.0
e 314 110 1.0
e 315 288 4.0
e 315 272 1.0
e 316 101 1.0
e 316 223 2.0
e 317 110 33.0
e 317 186 8.0
e 318 275 1.0
e 318 299 5.0
e 319 170 34.0
e 319 245 26.0
